20	5
0	10	1	4	5	6	7	8	2	3	10	9
1	6	20	19	16	17	15	18
2	5	19	18	15	17	16
3	5	20	15	11	14	12
4	4	20	19	16	15
5	6	17	13	15	14	11	20
6	5	14	13	15	17	11
7	3	14	18	20
8	5	17	11	12	14	15
9	4	17	15	18	19
10	6	14	17	15	12	11	20
11	2	19	16
12	1	18
13	3	19	12	16
14	1	16
15	1	21
16	1	21
17	1	21
18	1	21
19	1	21
20	1	21
21	0
0	0	0	0	0	0	0
1	4	5	4	4	5	4
2	6	1	3	4	3	5
3	3	0	5	5	5	2
4	8	3	1	1	2	2
5	7	4	0	2	4	3
6	10	3	5	5	1	4
7	2	4	2	0	0	4
8	10	1	5	0	0	1
9	4	4	1	3	0	5
10	7	0	3	1	3	0
11	9	5	5	1	3	5
12	4	1	0	3	4	1
13	5	2	3	2	1	1
14	8	3	0	0	4	2
15	7	5	3	3	2	0
16	6	0	0	0	0	5
17	2	5	4	2	1	3
18	1	0	0	0	5	0
19	2	0	0	4	0	0
20	6	3	3	2	4	3
21	0	0	0	0	0	0
15	17	15	14	18
